 Code  1833
 Dimension, Fixed Cost
   100        3000
 Facility, Client, Transportation Cost
     1       13           2
     1       14           1
     1       23           0
     1       28           1
     1       33           3
     1       68           4
     1       74           2
     1       77           0
     1       80           3
     1       83           1
     2        1           4
     2       11           0
     2       25           3
     2       26           4
     2       40           3
     2       44           1
     2       51           0
     2       60           3
     2       65           4
     2       76           3
     3       22           4
     3       28           1
     3       33           2
     3       39           0
     3       41           2
     3       42           2
     3       54           1
     3       61           3
     3       81           3
     3       82           2
     4        9           4
     4       16           4
     4       38           1
     4       41           1
     4       45           0
     4       54           3
     4       64           1
     4       66           3
     4       72           0
     4       76           4
     5        8           3
     5       31           1
     5       43           0
     5       50           4
     5       68           1
     5       72           0
     5       80           4
     5       96           1
     5       98           3
     5      100           1
     6        2           0
     6        4           4
     6       15           0
     6       25           0
     6       34           2
     6       51           0
     6       57           0
     6       69           1
     6       70           0
     6       75           0
     7       16           0
     7       47           2
     7       58           1
     7       65           4
     7       75           3
     7       79           2
     7       88           1
     7       90           0
     7       92           0
     7       95           3
     8       16           1
     8       22           1
     8       53           0
     8       65           2
     8       77           1
     8       78           0
     8       79           1
     8       86           0
     8       88           4
     8       91           0
     9        1           3
     9       13           4
     9       15           3
     9       22           0
     9       62           0
     9       66           0
     9       73           1
     9       74           1
     9       96           4
     9       98           1
    10        6           2
    10        9           1
    10       23           0
    10       26           1
    10       27           0
    10       49           0
    10       51           1
    10       70           2
    10       75           2
    10       78           4
    11       21           0
    11       25           3
    11       35           2
    11       44           2
    11       60           2
    11       61           0
    11       71           4
    11       89           0
    11       94           1
    11       95           4
    12        2           3
    12        9           1
    12       14           1
    12       29           3
    12       48           3
    12       63           2
    12       66           4
    12       67           0
    12       70           0
    12       83           4
    13        5           0
    13       11           0
    13       15           0
    13       20           0
    13       23           0
    13       46           2
    13       52           4
    13       57           1
    13       65           1
    13       72           1
    14        2           4
    14       10           2
    14       26           2
    14       30           3
    14       31           4
    14       36           1
    14       39           2
    14       49           2
    14       62           0
    14       79           3
    15       11           4
    15       15           4
    15       40           4
    15       54           4
    15       70           0
    15       71           0
    15       76           3
    15       83           3
    15       87           0
    15       90           3
    16        9           2
    16       12           2
    16       14           2
    16       21           3
    16       27           3
    16       31           2
    16       40           3
    16       46           3
    16       48           2
    16       51           4
    17        1           3
    17       17           2
    17       20           2
    17       29           4
    17       30           2
    17       42           1
    17       43           1
    17       53           3
    17       66           0
    17       71           1
    18        5           0
    18       18           4
    18       24           0
    18       36           2
    18       51           0
    18       71           0
    18       80           4
    18       81           2
    18       84           3
    18       95           4
    19       12           4
    19       27           4
    19       28           2
    19       32           2
    19       38           1
    19       50           1
    19       62           0
    19       67           1
    19       78           1
    19       80           2
    20       10           4
    20       36           4
    20       63           2
    20       77           2
    20       85           1
    20       91           1
    20       94           1
    20       96           1
    20       98           3
    20       99           0
    21       20           3
    21       26           1
    21       39           3
    21       42           2
    21       70           0
    21       71           4
    21       72           1
    21       74           3
    21       88           4
    21       90           0
    22       17           1
    22       33           0
    22       53           3
    22       56           4
    22       70           4
    22       72           4
    22       76           4
    22       84           3
    22       91           4
    22       96           4
    23        6           4
    23       10           2
    23       22           1
    23       24           1
    23       31           0
    23       67           4
    23       75           2
    23       81           4
    23       90           2
    23       92           0
    24       14           2
    24       16           2
    24       31           2
    24       36           0
    24       48           3
    24       68           0
    24       78           4
    24       79           4
    24       85           0
    24       88           2
    25        5           0
    25        8           3
    25       28           3
    25       33           4
    25       52           3
    25       53           3
    25       56           0
    25       63           4
    25       71           2
    25       87           0
    26       17           3
    26       38           4
    26       42           2
    26       60           3
    26       75           2
    26       82           3
    26       83           0
    26       89           2
    26       94           1
    26       97           2
    27        9           1
    27       17           0
    27       20           1
    27       48           2
    27       67           3
    27       74           2
    27       93           1
    27       94           1
    27       96           4
    27       97           1
    28       16           2
    28       41           0
    28       44           3
    28       47           4
    28       60           3
    28       80           3
    28       87           2
    28       91           2
    28       95           1
    28       97           0
    29        3           3
    29        9           2
    29       14           4
    29       19           3
    29       24           0
    29       30           0
    29       72           0
    29       85           0
    29       95           2
    29       96           4
    30        7           4
    30       20           2
    30       24           2
    30       32           3
    30       35           2
    30       45           1
    30       50           1
    30       65           3
    30       69           3
    30       83           0
    31        7           0
    31       17           2
    31       20           2
    31       21           3
    31       28           1
    31       35           3
    31       38           4
    31       45           0
    31       51           3
    31       55           3
    32        5           3
    32        6           4
    32        7           1
    32       22           3
    32       23           4
    32       35           1
    32       43           4
    32       66           4
    32       73           0
    32       92           0
    33       46           2
    33       47           0
    33       56           3
    33       57           0
    33       58           3
    33       79           4
    33       92           4
    33       93           1
    33       97           3
    33      100           0
    34        4           2
    34       22           1
    34       27           4
    34       29           3
    34       33           3
    34       37           2
    34       43           1
    34       44           2
    34       57           0
    34       59           3
    35        2           4
    35       24           2
    35       25           1
    35       39           3
    35       57           0
    35       62           1
    35       81           1
    35       88           4
    35       91           4
    35      100           3
    36        4           3
    36       16           2
    36       21           2
    36       23           2
    36       33           3
    36       37           2
    36       46           4
    36       53           4
    36       58           2
    36       86           3
    37        4           2
    37        7           3
    37       18           1
    37       22           3
    37       34           4
    37       40           0
    37       54           1
    37       73           3
    37       74           4
    37       90           4
    38        1           1
    38       11           4
    38       17           0
    38       30           4
    38       35           4
    38       40           4
    38       45           2
    38       53           0
    38       55           3
    38       58           3
    39       14           2
    39       28           2
    39       29           0
    39       32           0
    39       42           3
    39       61           4
    39       66           2
    39       77           3
    39       79           3
    39       92           1
    40        6           0
    40       19           1
    40       31           0
    40       32           4
    40       50           0
    40       51           2
    40       63           4
    40       65           1
    40       72           4
    40       85           2
    41       10           4
    41       24           1
    41       25           2
    41       43           0
    41       55           2
    41       56           1
    41       88           1
    41       89           1
    41       93           4
    41       99           2
    42        7           2
    42       26           2
    42       31           0
    42       37           4
    42       40           4
    42       52           2
    42       67           3
    42       76           3
    42       86           4
    42       87           4
    43       18           1
    43       32           2
    43       46           1
    43       55           1
    43       59           1
    43       61           0
    43       71           0
    43       72           0
    43       85           0
    43       89           0
    44        2           0
    44       25           1
    44       34           3
    44       37           0
    44       41           0
    44       53           3
    44       64           2
    44       69           4
    44       75           0
    44       80           0
    45        5           0
    45       13           3
    45       53           4
    45       55           4
    45       59           0
    45       63           1
    45       75           0
    45       81           3
    45       85           2
    45       92           1
    46       10           4
    46       11           1
    46       27           2
    46       28           3
    46       41           0
    46       42           1
    46       57           1
    46       74           3
    46       84           4
    46       86           4
    47        3           0
    47        5           1
    47       12           1
    47       29           3
    47       38           3
    47       47           3
    47       48           2
    47       61           3
    47       67           1
    47       70           2
    48        1           3
    48        7           4
    48       29           2
    48       37           2
    48       38           2
    48       50           4
    48       54           4
    48       64           1
    48       77           0
    48       83           2
    49       10           0
    49       14           3
    49       18           3
    49       21           4
    49       25           1
    49       43           1
    49       47           3
    49       50           0
    49       78           0
    49       84           0
    50       24           4
    50       39           4
    50       56           3
    50       69           3
    50       75           4
    50       96           2
    50       97           1
    50       98           3
    50       99           2
    50      100           0
    51        2           1
    51        7           2
    51       12           1
    51       24           1
    51       32           0
    51       46           1
    51       47           2
    51       52           0
    51       54           4
    51       67           3
    52        4           0
    52        6           3
    52       15           3
    52       30           1
    52       41           4
    52       44           4
    52       45           0
    52       49           0
    52       54           4
    52       59           0
    53        3           3
    53        5           2
    53        8           1
    53       12           2
    53       15           4
    53       18           4
    53       30           2
    53       31           0
    53       41           4
    53       60           1
    54        6           4
    54       12           0
    54       19           2
    54       23           2
    54       24           4
    54       33           0
    54       46           0
    54       64           1
    54       69           0
    54       74           0
    55        6           0
    55       29           0
    55       46           3
    55       53           1
    55       55           2
    55       60           4
    55       68           4
    55       80           3
    55       81           2
    55       94           3
    56       16           2
    56       20           4
    56       29           1
    56       42           0
    56       44           1
    56       48           2
    56       49           2
    56       50           1
    56       56           4
    56       68           1
    57       11           4
    57       15           0
    57       19           4
    57       26           0
    57       27           0
    57       34           0
    57       42           0
    57       67           4
    57       76           4
    57       84           0
    58        2           2
    58        8           0
    58       20           0
    58       25           4
    58       43           4
    58       46           3
    58       47           2
    58       50           2
    58       56           3
    58       59           1
    59       22           1
    59       38           0
    59       45           2
    59       52           2
    59       61           1
    59       68           2
    59       70           2
    59       93           2
    59       98           3
    59      100           1
    60        4           4
    60        6           3
    60       31           0
    60       47           3
    60       59           0
    60       61           2
    60       62           1
    60       66           1
    60       73           4
    60       77           2
    61       11           3
    61       25           1
    61       26           1
    61       83           0
    61       88           1
    61       92           4
    61       97           2
    61       98           0
    61       99           3
    61      100           1
    62       37           4
    62       39           2
    62       41           4
    62       48           1
    62       78           2
    62       82           4
    62       87           2
    62       90           4
    62       96           0
    62       98           2
    63        8           2
    63        9           1
    63       12           0
    63       13           1
    63       24           4
    63       26           3
    63       35           4
    63       39           2
    63       41           2
    63       64           2
    64        5           0
    64       40           2
    64       47           4
    64       48           4
    64       49           4
    64       56           0
    64       95           0
    64       98           4
    64       99           1
    64      100           4
    65       23           1
    65       35           0
    65       36           0
    65       44           1
    65       48           1
    65       56           4
    65       60           0
    65       62           3
    65       80           3
    65       82           2
    66       32           2
    66       37           4
    66       52           3
    66       58           1
    66       61           1
    66       79           1
    66       84           2
    66       87           1
    66       89           2
    66       93           2
    67       44           0
    67       53           3
    67       59           1
    67       62           2
    67       63           3
    67       64           1
    67       77           4
    67       82           2
    67       86           1
    67       89           4
    68       10           0
    68       20           1
    68       22           1
    68       27           2
    68       71           4
    68       76           3
    68       78           3
    68       89           2
    68       92           1
    68       95           3
    69        5           1
    69        8           0
    69       10           4
    69       13           4
    69       23           0
    69       32           4
    69       50           3
    69       65           0
    69       66           1
    69       87           3
    70        3           4
    70        7           2
    70       23           0
    70       28           3
    70       54           1
    70       67           2
    70       78           3
    70       81           1
    70       84           1
    70       87           1
    71        2           0
    71        3           2
    71        7           4
    71       16           1
    71       19           2
    71       20           0
    71       34           0
    71       36           4
    71       44           0
    71       59           0
    72        4           4
    72       12           4
    72       36           3
    72       49           4
    72       58           0
    72       82           4
    72       88           0
    72       89           1
    72       91           0
    72       92           2
    73       18           0
    73       27           0
    73       30           3
    73       39           4
    73       45           0
    73       52           3
    73       55           1
    73       78           0
    73       79           3
    73      100           1
    74       13           1
    74       14           2
    74       30           4
    74       41           0
    74       48           1
    74       49           1
    74       51           4
    74       61           0
    74       62           3
    74       65           2
    75        1           3
    75       15           1
    75       17           1
    75       21           0
    75       49           3
    75       52           1
    75       61           1
    75       70           3
    75       71           0
    75       80           4
    76        1           2
    76       11           1
    76       35           3
    76       39           2
    76       40           2
    76       65           4
    76       74           2
    76       92           1
    76       96           0
    76       97           3
    77        3           1
    77       17           4
    77       21           2
    77       50           0
    77       60           0
    77       63           2
    77       68           0
    77       74           4
    77       97           0
    77       99           4
    78       28           1
    78       34           4
    78       42           0
    78       54           2
    78       55           4
    78       69           3
    78       79           3
    78       85           0
    78       93           2
    78       99           2
    79        2           3
    79       19           1
    79       32           3
    79       36           4
    79       46           3
    79       51           2
    79       55           4
    79       63           1
    79       77           4
    79       83           0
    80       14           2
    80       17           1
    80       18           4
    80       19           2
    80       21           3
    80       29           3
    80       47           1
    80       52           1
    80       72           3
    80       75           2
    81       25           3
    81       42           0
    81       60           2
    81       65           4
    81       66           1
    81       73           4
    81       93           2
    81       94           3
    81       95           3
    81       98           3
    82        8           4
    82       13           2
    82       31           4
    82       33           2
    82       34           4
    82       37           4
    82       39           0
    82       73           0
    82       82           4
    82       83           2
    83       45           3
    83       51           2
    83       58           4
    83       60           3
    83       63           0
    83       69           3
    83       75           0
    83       85           4
    83       90           0
    83       94           2
    84        1           2
    84       11           0
    84       17           2
    84       38           4
    84       43           0
    84       54           2
    84       57           4
    84       69           1
    84       81           3
    84       86           3
    85        3           4
    85       18           3
    85       22           3
    85       44           4
    85       45           1
    85       52           0
    85       55           1
    85       56           3
    85       93           1
    85       99           3
    86       18           3
    86       26           4
    86       37           3
    86       49           1
    86       57           2
    86       62           3
    86       64           4
    86       69           2
    86       72           1
    86       86           1
    87        1           3
    87       10           1
    87       12           1
    87       13           3
    87       21           3
    87       30           1
    87       64           1
    87       70           0
    87       91           0
    87       93           0
    88        9           4
    88       11           3
    88       14           4
    88       16           1
    88       28           0
    88       34           2
    88       64           1
    88       66           2
    88       68           4
    88       79           3
    89        2           1
    89        7           1
    89       21           1
    89       37           4
    89       45           2
    89       73           0
    89       74           1
    89       81           3
    89       84           1
    89       88           1
    90        3           1
    90       19           1
    90       35           0
    90       59           2
    90       73           0
    90       76           4
    90       82           2
    90       85           2
    90       87           0
    90       91           2
    91       33           4
    91       73           1
    91       89           2
    91       90           3
    91       91           0
    91       95           2
    91       97           4
    91       98           3
    91       99           3
    91      100           4
    92        3           3
    92        8           0
    92       30           0
    92       58           3
    92       59           0
    92       83           0
    92       84           3
    92       87           1
    92       90           4
    92       97           4
    93        9           4
    93       19           1
    93       26           4
    93       33           3
    93       34           3
    93       38           0
    93       57           0
    93       64           0
    93       69           0
    93       89           2
    94        4           1
    94        6           1
    94       29           2
    94       36           1
    94       40           0
    94       58           0
    94       68           3
    94       71           0
    94       90           2
    94       94           3
    95        4           4
    95        8           2
    95       10           4
    95       13           0
    95       16           1
    95       23           4
    95       34           3
    95       40           3
    95       63           3
    95       82           2
    96       15           0
    96       18           3
    96       19           4
    96       36           4
    96       76           0
    96       77           0
    96       86           4
    96       91           1
    96       93           3
    96       94           4
    97        6           3
    97        9           1
    97       12           3
    97       15           1
    97       43           4
    97       62           0
    97       80           3
    97       86           3
    97       94           3
    97       99           2
    98        3           3
    98        8           2
    98       13           1
    98       27           1
    98       35           2
    98       58           1
    98       86           1
    98       95           4
    98       96           1
    98      100           3
    99        4           3
    99        5           3
    99       32           1
    99       38           4
    99       57           2
    99       67           1
    99       68           1
    99       78           2
    99       81           3
    99       88           0
   100        1           1
   100       27           4
   100       43           4
   100       49           3
   100       73           3
   100       76           0
   100       77           4
   100       82           3
   100       84           0
   100       85           0
